unsat
(:eliminated-vars    1
 :max-memory         18.02
 :memory             17.91
 :nlsat-conflicts    1
 :nlsat-propagations 2
 :nlsat-stages       1
 :num-allocs         6017
 :rlimit-count       2098
 :time               0.00
 :total-time         0.01)
